
P = 1;

n = 10;

m = 10;

w1 = 1.00;

w2 = 5.00;

L = 3.00;

g = 1.26;

t = 
[[95,70,94,78,87,61,77,82,97,72],
[72,96,81,60,66,61,85,69,64,79],
[60,69,91,97,77,71,61,95,89,67],
[67,76,77,93,86,65,86,63,79,84],
[68,91,72,89,83,79,90,68,88,95],
[80,89,96,63,78,65,66,71,61,95],
[79,68,64,88,61,90,93,80,94,64],
[64,94,87,76,83,71,87,65,79,76],
[92,91,97,88,95,67,94,61,78,95],
[89,97,95,93,78,88,83,71,68,69]];
